NAME: eil76.tsp
TYPE: TSP
COMMENT: Solution
DIMENSION: 76
TOUR_SECTION
1
73
62
28
61
6
51
17
40
12
72
39
9
32
44
3
16
63
33
68
75
76
26
67
4
7
53
35
8
46
34
52
27
45
29
5
47
21
74
2
30
48
69
36
71
60
70
20
37
15
57
13
54
19
14
59
66
11
65
38
58
10
31
55
25
50
18
49
24
56
23
43
42
41
64
22
-1
EOF